70 70
26 55
19 20
25 19
20 56
30 49
17 39
18 68
3 15
14 47
32 32
26 24
18 14
11 27
31 8
33 35
15 57
34 37
7 53
28 50
11 42
22 3
9 67
2 63
12 5
5 2
28 16
2 40
33 25
27 6
16 1
8 4
23 60
4 7
1 58
31 70
13 41
30 30
7 11
12 36
20 21
21 64
6 10
19 51
29 62
13 34
35 66
24 46
29 54
35 45
10 38
8 9
24 65
34 22
10 33
32 69
4 44
23 12
17 43
3 23
6 31
27 28
15 52
5 18
21 26
9 61
22 13
1 29
16 17
25 59
14 48
